; 
(set-info :status unknown)
(declare-fun ccso_node_0x7ffff0d28b00 () (_ BitVec 64))
(declare-fun return_node_0x7fffeb96b5b0_CS0x3f256b0 () (_ BitVec 64))
(declare-fun LdMem_0x12ea87c0 () (_ BitVec 64))
(declare-fun node_0x12ea8a40 () (_ BitVec 64))
(declare-fun parg_node_0x12e1a740_CS0x3f256b0 () (_ BitVec 64))
(declare-fun LdMem_0x12ea7ec0 () (_ BitVec 32))
(declare-fun node_0x12ea8140 () (_ BitVec 32))
(declare-fun parg_node_0x12e1a970_CS0x3f256b0 () (_ BitVec 32))
(declare-fun LdMem_0x12ea8340 () (_ BitVec 32))
(declare-fun node_0x12ea85c0 () (_ BitVec 32))
(declare-fun parg_node_0x12e1adf0_CS0x3f256b0 () (_ BitVec 32))
(declare-fun LdMem_0x7ffff0cfe160 () (_ BitVec 64))
(declare-fun node_0x7ffff0d34bd0 () (_ BitVec 64))
(declare-fun ccso_node_0x7ffff0d2df40 () (_ BitVec 1))
(declare-fun ieq_0x7ffff0d2eac0 () (_ BitVec 1))
(declare-fun node_0x7ffff0cd8da0 () (_ BitVec 1))
(declare-fun ccso_node_0x7ffff0d2cec0 () (_ BitVec 1))
(declare-fun ieq_0x7ffff0d2da60 () (_ BitVec 1))
(declare-fun node_0x7ffff0cd80c0 () (_ BitVec 1))
(declare-fun carg_node_0x7ffff0cc0130 () (_ BitVec 32))
(declare-fun ine_0x7ffff0d2a590 () (_ BitVec 1))
(declare-fun node_0x7ffff0cd5810 () (_ BitVec 1))
(declare-fun iult_0x7ffff0d29a10 () (_ BitVec 1))
(declare-fun node_0x7ffff0cd2cd0 () (_ BitVec 1))
(declare-fun node_0x7ffff0d29690 () (_ BitVec 64))
(declare-fun sext_0x7ffff0d29810 () (_ BitVec 64))
(declare-fun LdMem_0x7ffff0d0a510 () (_ BitVec 32))
(declare-fun node_0x7ffff0d29240 () (_ BitVec 32))
(declare-fun ccso_node_0x7ffff0d10840 () (_ BitVec 1))
(declare-fun ieq_0x7ffff0d285c0 () (_ BitVec 1))
(declare-fun node_0x7ffff0cd0be0 () (_ BitVec 1))
(declare-fun ieq_0x7ffff0d26430 () (_ BitVec 1))
(declare-fun node_0x7ffff0ccfeb0 () (_ BitVec 1))
(declare-fun node_0x7ffff0d26040 () (_ BitVec 32))
(declare-fun node_0x7ffff0d0af10 () (_ BitVec 32))
(declare-fun srem_0x7ffff0d261b0 () (_ BitVec 32))
(declare-fun ccso_node_0x7ffff0d0d080 () (_ BitVec 1))
(declare-fun ieq_0x7ffff0d25af0 () (_ BitVec 1))
(declare-fun node_0x7ffff0ccde40 () (_ BitVec 1))
(declare-fun node_0x7ffff0d09520 () (_ BitVec 64))
(declare-fun islt_0x7ffff0d22d10 () (_ BitVec 1))
(declare-fun node_0x7ffff0ccb110 () (_ BitVec 1))
(declare-fun islt_0x7ffff0d20030 () (_ BitVec 1))
(declare-fun node_0x7ffff0cc9710 () (_ BitVec 1))
(declare-fun node_0x7ffff0d05f00 () (_ BitVec 32))
(declare-fun sext_0x7ffff0d096c0 () (_ BitVec 64))
(declare-fun ieq_0x7ffff0d23650 () (_ BitVec 1))
(declare-fun node_0x7ffff0ccd1b0 () (_ BitVec 1))
(declare-fun node_0x7ffff0d23260 () (_ BitVec 32))
(declare-fun srem_0x7ffff0d233d0 () (_ BitVec 32))
(declare-fun add_0x7ffff0d0b090 () (_ BitVec 32))
(declare-fun node_0x7ffff0d091d0 () (_ BitVec 32))
(declare-fun trunc_0x7ffff0d09320 () (_ BitVec 32))
(declare-fun node_0x7ffff0d05a40 () (_ BitVec 64))
(declare-fun udiv_0x7ffff0d05be0 () (_ BitVec 64))
(declare-fun LdMem_0x7ffff0d04980 () (_ BitVec 64))
(declare-fun node_0x7ffff0d04800 () (_ BitVec 64))
(declare-fun node_0x7ffff0d05620 () (_ BitVec 64))
(declare-fun sext_0x7ffff0d057a0 () (_ BitVec 64))
(declare-fun LdMem_0x7ffff0cff9a0 () (_ BitVec 32))
(declare-fun node_0x7ffff0d051d0 () (_ BitVec 32))
(declare-fun node_0x7ffff0cc1240 () (_ BitVec 1))
(declare-fun node_0x7ffff0cc24d0 () (_ BitVec 1))
(declare-fun node_0x7ffff0cc3110 () (_ BitVec 1))
(declare-fun node_0x7ffff0cc5140 () (_ BitVec 1))
(declare-fun node_0x7ffff0cc5d20 () (_ BitVec 1))
(declare-fun node_0x7ffff0cc8250 () (_ BitVec 1))
(declare-fun node_0x7ffff0cc75c0 () (_ BitVec 1))
(declare-fun ccso_node_0x7ffff0d09ac0 () (_ BitVec 64))
(declare-fun return_node_0x7fffeb96b5b0_CS0x3ed37d0 () (_ BitVec 64))
(declare-fun LdMem_0x12e79f20 () (_ BitVec 64))
(declare-fun node_0x12e7a1a0 () (_ BitVec 64))
(declare-fun parg_node_0x12e1a740_CS0x3ed37d0 () (_ BitVec 64))
(declare-fun LdMem_0x12e79620 () (_ BitVec 32))
(declare-fun node_0x12e798a0 () (_ BitVec 32))
(declare-fun parg_node_0x12e1a970_CS0x3ed37d0 () (_ BitVec 32))
(declare-fun LdMem_0x12e79aa0 () (_ BitVec 32))
(declare-fun node_0x12e79d20 () (_ BitVec 32))
(declare-fun parg_node_0x12e1adf0_CS0x3ed37d0 () (_ BitVec 32))
(declare-fun ccso_node_0x7ffff0d0c000 () (_ BitVec 1))
(declare-fun ieq_0x7ffff0d0cc20 () (_ BitVec 1))
(declare-fun ccso_node_0x7ffff0cfa0f0 () (_ BitVec 1))
(declare-fun ieq_0x7ffff0cfaae0 () (_ BitVec 1))
(declare-fun node_0x7ffff0d07060 () (_ BitVec 64))
(declare-fun islt_0x7ffff0d07400 () (_ BitVec 1))
(declare-fun islt_0x7ffff0d08db0 () (_ BitVec 1))
(declare-fun sext_0x7ffff0d07200 () (_ BitVec 64))
(declare-fun sdiv_0x7ffff0d060a0 () (_ BitVec 32))
(declare-fun LdMem_0x7ffff0d004a0 () (_ BitVec 32))
(declare-fun node_0x7ffff0d02480 () (_ BitVec 32))
(declare-fun node_0x7ffff0d01a50 () (_ BitVec 32))
(declare-fun ine_0x7ffff0d0b630 () (_ BitVec 1))
(declare-fun ccso_node_0x7ffff0d0d190 () (_ BitVec 1))
(declare-fun ieq_0x7ffff0d0dd60 () (_ BitVec 1))
(declare-fun iult_0x7ffff0d0ab10 () (_ BitVec 1))
(declare-fun node_0x7ffff0d0a790 () (_ BitVec 64))
(declare-fun sext_0x7ffff0d0a910 () (_ BitVec 64))
(declare-fun node_0x7ffff0d0a390 () (_ BitVec 32))
(declare-fun bitcast_0x7ffff0d18ca0 () (_ BitVec 64))
(declare-fun node_0x7ffff0d18b20 () (_ BitVec 64))
(declare-fun node_0x7ffff0d18720 () (_ BitVec 64))
(declare-fun node_0x12e88010 () (_ BitVec 64))
(declare-fun StMem_0x12e87d50 () (_ BitVec 64))
(declare-fun R0x7ffff0c83d30 () (_ BitVec 1))
(declare-fun node_0x7fffeb96e830_CS0x3f256b0 () (_ BitVec 64))
(declare-fun udiv_0x7fffeb96e9d0_CS0x3f256b0 () (_ BitVec 64))
(declare-fun node_0x7fffeb96e300_CS0x3f256b0 () (_ BitVec 64))
(declare-fun node_0x7fffeb96c3b0_CS0x3f256b0 () (_ BitVec 64))
(declare-fun LdMem_0x7fffeb96c530_CS0x3f256b0 () (_ BitVec 64))
(declare-fun StMem_0x12e1a600_CS0x3f256b0 () (_ BitVec 64))
(declare-fun R0x7fffeb96b170_CS0x3f256b0 () (_ BitVec 1))
(declare-fun sext_0x7fffeb96e590_CS0x3f256b0 () (_ BitVec 64))
(declare-fun node_0x7fffeb96df50_CS0x3f256b0 () (_ BitVec 32))
(declare-fun mul_0x7fffeb96e0d0_CS0x3f256b0 () (_ BitVec 32))
(declare-fun LdMem_0x7fffeb96dc80_CS0x3f256b0 () (_ BitVec 32))
(declare-fun node_0x7fffeb96db00_CS0x3f256b0 () (_ BitVec 32))
(declare-fun StMem_0x12e1acb0_CS0x3f256b0 () (_ BitVec 32))
(declare-fun node_0x7fffeb96ced0_CS0x3f256b0 () (_ BitVec 32))
(declare-fun LdMem_0x7fffeb96d160_CS0x3f256b0 () (_ BitVec 32))
(declare-fun StMem_0x7fffeb96d030_CS0x3f256b0 () (_ BitVec 32))
(declare-fun node_0x7fffeb96e830_CS0x3ed37d0 () (_ BitVec 64))
(declare-fun udiv_0x7fffeb96e9d0_CS0x3ed37d0 () (_ BitVec 64))
(declare-fun node_0x7fffeb96e300_CS0x3ed37d0 () (_ BitVec 64))
(declare-fun node_0x7fffeb96c3b0_CS0x3ed37d0 () (_ BitVec 64))
(declare-fun LdMem_0x7fffeb96c530_CS0x3ed37d0 () (_ BitVec 64))
(declare-fun StMem_0x12e1a600_CS0x3ed37d0 () (_ BitVec 64))
(declare-fun R0x7fffeb96b170_CS0x3ed37d0 () (_ BitVec 1))
(declare-fun sext_0x7fffeb96e590_CS0x3ed37d0 () (_ BitVec 64))
(declare-fun node_0x7fffeb96df50_CS0x3ed37d0 () (_ BitVec 32))
(declare-fun mul_0x7fffeb96e0d0_CS0x3ed37d0 () (_ BitVec 32))
(declare-fun LdMem_0x7fffeb96dc80_CS0x3ed37d0 () (_ BitVec 32))
(declare-fun node_0x7fffeb96db00_CS0x3ed37d0 () (_ BitVec 32))
(declare-fun StMem_0x12e1acb0_CS0x3ed37d0 () (_ BitVec 32))
(declare-fun node_0x7fffeb96ced0_CS0x3ed37d0 () (_ BitVec 32))
(declare-fun LdMem_0x7fffeb96d160_CS0x3ed37d0 () (_ BitVec 32))
(declare-fun StMem_0x7fffeb96d030_CS0x3ed37d0 () (_ BitVec 32))
(assert
 (let (($x474 (= return_node_0x7fffeb96b5b0_CS0x3f256b0 ccso_node_0x7ffff0d28b00)))
 (let (($x473 (= node_0x12ea8a40 LdMem_0x12ea87c0)))
 (let (($x471 (= parg_node_0x12e1a740_CS0x3f256b0 node_0x12ea8a40)))
 (let (($x469 (= node_0x12ea8140 LdMem_0x12ea7ec0)))
 (let (($x467 (= parg_node_0x12e1a970_CS0x3f256b0 node_0x12ea8140)))
 (let (($x465 (= node_0x12ea85c0 LdMem_0x12ea8340)))
 (let (($x463 (= parg_node_0x12e1adf0_CS0x3f256b0 node_0x12ea85c0)))
 (let (($x460 (= node_0x7ffff0d34bd0 LdMem_0x7ffff0cfe160)))
 (let (($x458 (= ieq_0x7ffff0d2eac0 (ite (= ccso_node_0x7ffff0d2df40 (_ bv0 1)) (_ bv1 1) (_ bv0 1)))))
 (let (($x454 (= node_0x7ffff0cd8da0 ieq_0x7ffff0d2eac0)))
 (let (($x452 (= ieq_0x7ffff0d2da60 (ite (= ccso_node_0x7ffff0d2cec0 (_ bv0 1)) (_ bv1 1) (_ bv0 1)))))
 (let (($x448 (= node_0x7ffff0cd80c0 ieq_0x7ffff0d2da60)))
 (let ((?x223 (ite (and (distinct carg_node_0x7ffff0cc0130 (_ bv0 32)) true) (_ bv1 1) (_ bv0 1))))
 (let (($x445 (= node_0x7ffff0cd5810 ine_0x7ffff0d2a590)))
 (let (($x443 (= node_0x7ffff0cd2cd0 iult_0x7ffff0d29a10)))
 (let (($x442 (= iult_0x7ffff0d29a10 (ite (bvult ccso_node_0x7ffff0d28b00 node_0x7ffff0d29690) (_ bv1 1) (_ bv0 1)))))
 (let (($x437 (= node_0x7ffff0d29690 sext_0x7ffff0d29810)))
 (let (($x435 (= node_0x7ffff0d29240 LdMem_0x7ffff0d0a510)))
 (let (($x430 (= ieq_0x7ffff0d285c0 (ite (= ccso_node_0x7ffff0d10840 (_ bv0 1)) (_ bv1 1) (_ bv0 1)))))
 (let (($x426 (= node_0x7ffff0cd0be0 ieq_0x7ffff0d285c0)))
 (let (($x424 (= node_0x7ffff0ccfeb0 ieq_0x7ffff0d26430)))
 (let (($x423 (= ieq_0x7ffff0d26430 (ite (= node_0x7ffff0d26040 (_ bv0 32)) (_ bv1 1) (_ bv0 1)))))
 (let (($x416 (= node_0x7ffff0d26040 srem_0x7ffff0d261b0)))
 (let (($x413 (= ieq_0x7ffff0d25af0 (ite (= ccso_node_0x7ffff0d0d080 (_ bv0 1)) (_ bv1 1) (_ bv0 1)))))
 (let (($x409 (= node_0x7ffff0ccde40 ieq_0x7ffff0d25af0)))
 (let (($x407 (= islt_0x7ffff0d22d10 (ite (bvslt (_ bv1 64) node_0x7ffff0d09520) (_ bv1 1) (_ bv0 1)))))
 (let (($x404 (= node_0x7ffff0ccb110 islt_0x7ffff0d22d10)))
 (let (($x402 (= node_0x7ffff0cc9710 islt_0x7ffff0d20030)))
 (let (($x401 (= islt_0x7ffff0d20030 (ite (bvslt (_ bv0 64) node_0x7ffff0d09520) (_ bv1 1) (_ bv0 1)))))
 (let (($x396 (= node_0x7ffff0d09520 sext_0x7ffff0d096c0)))
 (let (($x393 (= node_0x7ffff0ccd1b0 ieq_0x7ffff0d23650)))
 (let (($x392 (= ieq_0x7ffff0d23650 (ite (= node_0x7ffff0d23260 (_ bv0 32)) (_ bv1 1) (_ bv0 1)))))
 (let (($x388 (= node_0x7ffff0d23260 srem_0x7ffff0d233d0)))
 (let (($x382 (= node_0x7ffff0d0af10 add_0x7ffff0d0b090)))
 (let (($x376 (= node_0x7ffff0d091d0 trunc_0x7ffff0d09320)))
 (let (($x374 (= trunc_0x7ffff0d09320 ((_ extract 31 0) node_0x7ffff0d05a40))))
 (let (($x371 (= node_0x7ffff0d05a40 udiv_0x7ffff0d05be0)))
 (let (($x369 (= node_0x7ffff0d04800 LdMem_0x7ffff0d04980)))
 (let (($x366 (or (or (= node_0x7ffff0d04800 (_ bv0 64)) (= node_0x7ffff0d05620 (_ bv0 64))) (and (distinct udiv_0x7ffff0d05be0 (_ bv0 64)) true))))
 (let (($x361 (= udiv_0x7ffff0d05be0 (bvudiv node_0x7ffff0d04800 node_0x7ffff0d05620))))
 (let (($x357 (= node_0x7ffff0d05620 sext_0x7ffff0d057a0)))
 (let (($x355 (= node_0x7ffff0d051d0 LdMem_0x7ffff0cff9a0)))
 (let (($x461 (and (= sext_0x7ffff0d057a0 ((_ sign_extend 32) node_0x7ffff0d051d0)) $x355 $x357 (and $x361 $x366) $x369 $x371 $x374 $x376 (= add_0x7ffff0d0b090 (bvadd node_0x7ffff0d091d0 (_ bv1 32))) $x382 (= srem_0x7ffff0d233d0 (bvsrem node_0x7ffff0d0af10 (_ bv10000 32))) $x388 $x392 $x393 $x396 (= sext_0x7ffff0d096c0 ((_ sign_extend 32) node_0x7ffff0d05f00)) $x401 $x402 $x404 $x407 $x409 $x413 $x416 (= srem_0x7ffff0d261b0 (bvsrem node_0x7ffff0d0af10 (_ bv100 32))) $x423 $x424 $x426 $x430 (= sext_0x7ffff0d29810 ((_ sign_extend 32) node_0x7ffff0d29240)) $x435 $x437 $x442 $x443 $x445 (= ine_0x7ffff0d2a590 ?x223) $x448 $x452 $x454 $x458 $x460)))
 (let (($x282 (not (= node_0x7ffff0cc3110 (_ bv1 1)))))
 (let (($x284 (and $x282 (and (= node_0x7ffff0cc24d0 (_ bv1 1)) (= node_0x7ffff0cc1240 (_ bv1 1))))))
 (let (($x279 (= node_0x7ffff0cc1240 (_ bv1 1))))
 (let (($x280 (and (not (= node_0x7ffff0cc24d0 (_ bv1 1))) $x279)))
 (let (($x276 (= node_0x7ffff0cc5140 (_ bv1 1))))
 (let (($x286 (and $x276 (or $x280 $x284))))
 (let (($x275 (= node_0x7ffff0cc5d20 (_ bv1 1))))
 (let (($x290 (not $x275)))
 (let (($x289 (= node_0x7ffff0cc8250 (_ bv1 1))))
 (let (($x293 (or (and (= node_0x7ffff0cc75c0 (_ bv1 1)) (and $x275 $x286)) (and $x289 (and $x290 $x286)))))
 (let (($x321 (= node_0x7ffff0cc9710 (_ bv1 1))))
 (let (($x326 (not (= node_0x7ffff0ccb110 (_ bv1 1)))))
 (let (($x329 (or (and (not $x321) $x293) (and $x326 (and $x321 $x293)))))
 (let (($x318 (= node_0x7ffff0ccd1b0 (_ bv1 1))))
 (let (($x332 (= node_0x7ffff0ccde40 (_ bv1 1))))
 (let (($x335 (or (and (not $x318) $x329) (and $x332 (and $x318 $x329)))))
 (let (($x315 (= node_0x7ffff0ccfeb0 (_ bv1 1))))
 (let (($x338 (= node_0x7ffff0cd0be0 (_ bv1 1))))
 (let (($x313 (= node_0x7ffff0cd2cd0 (_ bv1 1))))
 (let (($x342 (and $x313 (or (and (not $x315) $x335) (and $x338 (and $x315 $x335))))))
 (let (($x311 (= node_0x7ffff0cd5810 (_ bv1 1))))
 (let (($x347 (not $x311)))
 (let (($x346 (= node_0x7ffff0cd8da0 (_ bv1 1))))
 (let (($x350 (or (and (= node_0x7ffff0cd80c0 (_ bv1 1)) (and $x311 $x342)) (and $x346 (and $x347 $x342)))))
 (let (($x307 (= return_node_0x7fffeb96b5b0_CS0x3ed37d0 ccso_node_0x7ffff0d09ac0)))
 (let (($x306 (= node_0x12e7a1a0 LdMem_0x12e79f20)))
 (let (($x304 (= parg_node_0x12e1a740_CS0x3ed37d0 node_0x12e7a1a0)))
 (let (($x302 (= node_0x12e798a0 LdMem_0x12e79620)))
 (let (($x300 (= parg_node_0x12e1a970_CS0x3ed37d0 node_0x12e798a0)))
 (let (($x298 (= node_0x12e79d20 LdMem_0x12e79aa0)))
 (let (($x296 (= parg_node_0x12e1adf0_CS0x3ed37d0 node_0x12e79d20)))
 (let (($x273 (= ieq_0x7ffff0d0cc20 (ite (= ccso_node_0x7ffff0d0c000 (_ bv0 1)) (_ bv1 1) (_ bv0 1)))))
 (let (($x269 (= node_0x7ffff0cc75c0 ieq_0x7ffff0d0cc20)))
 (let (($x266 (= ieq_0x7ffff0cfaae0 (ite (= ccso_node_0x7ffff0cfa0f0 (_ bv0 1)) (_ bv1 1) (_ bv0 1)))))
 (let (($x262 (= node_0x7ffff0cc1240 ieq_0x7ffff0cfaae0)))
 (let (($x259 (= islt_0x7ffff0d07400 (ite (bvslt (_ bv0 64) node_0x7ffff0d07060) (_ bv1 1) (_ bv0 1)))))
 (let (($x256 (= node_0x7ffff0cc24d0 islt_0x7ffff0d07400)))
 (let (($x253 (= node_0x7ffff0cc3110 islt_0x7ffff0d08db0)))
 (let (($x251 (= islt_0x7ffff0d08db0 (ite (bvslt (_ bv1 64) node_0x7ffff0d07060) (_ bv1 1) (_ bv0 1)))))
 (let (($x246 (= node_0x7ffff0d07060 sext_0x7ffff0d07200)))
 (let (($x241 (= node_0x7ffff0d05f00 sdiv_0x7ffff0d060a0)))
 (let (($x239 (= node_0x7ffff0d02480 LdMem_0x7ffff0d004a0)))
 (let (($x237 (= node_0x7ffff0d01a50 LdMem_0x7ffff0cff9a0)))
 (let (($x234 (or (or (= node_0x7ffff0d01a50 (_ bv0 32)) (= node_0x7ffff0d02480 (_ bv0 32))) (and (distinct sdiv_0x7ffff0d060a0 (_ bv0 32)) true))))
 (let (($x229 (= sdiv_0x7ffff0d060a0 (bvsdiv node_0x7ffff0d01a50 node_0x7ffff0d02480))))
 (let (($x220 (= node_0x7ffff0cc5d20 ine_0x7ffff0d0b630)))
 (let (($x217 (= ieq_0x7ffff0d0dd60 (ite (= ccso_node_0x7ffff0d0d190 (_ bv0 1)) (_ bv1 1) (_ bv0 1)))))
 (let (($x213 (= node_0x7ffff0cc8250 ieq_0x7ffff0d0dd60)))
 (let (($x210 (= node_0x7ffff0cc5140 iult_0x7ffff0d0ab10)))
 (let (($x208 (= iult_0x7ffff0d0ab10 (ite (bvult ccso_node_0x7ffff0d09ac0 node_0x7ffff0d0a790) (_ bv1 1) (_ bv0 1)))))
 (let (($x202 (= node_0x7ffff0d0a790 sext_0x7ffff0d0a910)))
 (let (($x200 (= node_0x7ffff0d0a390 LdMem_0x7ffff0d0a510)))
 (let (($x294 (and (= sext_0x7ffff0d0a910 ((_ sign_extend 32) node_0x7ffff0d0a390)) $x200 $x202 $x208 $x210 $x213 $x217 $x220 (= ine_0x7ffff0d0b630 ?x223) (and $x229 $x234) $x237 $x239 $x241 (= sext_0x7ffff0d07200 ((_ sign_extend 32) node_0x7ffff0d05f00)) $x246 $x251 $x253 $x256 $x259 $x262 $x266 $x269 $x273 $x293)))
 (let (($x193 (= node_0x7ffff0d18b20 bitcast_0x7ffff0d18ca0)))
 (let (($x191 (= bitcast_0x7ffff0d18ca0 node_0x7ffff0d18720)))
 (let (($x189 (= node_0x7ffff0d18720 LdMem_0x7ffff0cfe160)))
 (let (($x187 (= StMem_0x12e87d50 node_0x12e88010)))
 (let (($x184 (= LdMem_0x7ffff0cfe160 StMem_0x12e87d50)))
 (let (($x185 (or (not (= R0x7ffff0c83d30 (_ bv1 1))) $x184)))
 (let (($x194 (and $x185 $x184 $x187 $x189 $x191 $x193)))
 (and $x194 $x294 $x296 $x298 $x300 $x302 $x304 $x306 $x307 $x293 $x350 $x461 $x463 $x465 $x467 $x469 $x471 $x473 $x474)))))))))))))))))))))))))))))))))))))))))))))))))))))))))))))))))))))))))))))))))))))))))))))))))))))))))
(assert
 (let (($x142 (= return_node_0x7fffeb96b5b0_CS0x3f256b0 node_0x7fffeb96e830_CS0x3f256b0)))
(let (($x143 (= node_0x7fffeb96e830_CS0x3f256b0 udiv_0x7fffeb96e9d0_CS0x3f256b0)))
(let (($x145 (= node_0x7fffeb96e300_CS0x3f256b0 (_ bv0 64))))
(let (($x146 (= node_0x7fffeb96c3b0_CS0x3f256b0 (_ bv0 64))))
(let (($x150 (= udiv_0x7fffeb96e9d0_CS0x3f256b0 (bvudiv node_0x7fffeb96c3b0_CS0x3f256b0 node_0x7fffeb96e300_CS0x3f256b0))))
(let (($x151 (and $x150 (or (or $x146 $x145) (and (distinct udiv_0x7fffeb96e9d0_CS0x3f256b0 (_ bv0 64)) true)))))
(let (($x152 (= node_0x7fffeb96c3b0_CS0x3f256b0 LdMem_0x7fffeb96c530_CS0x3f256b0)))
(let (($x153 (= StMem_0x12e1a600_CS0x3f256b0 parg_node_0x12e1a740_CS0x3f256b0)))
(let (($x154 (= LdMem_0x7fffeb96c530_CS0x3f256b0 StMem_0x12e1a600_CS0x3f256b0)))
(let (($x156 (not (= R0x7fffeb96b170_CS0x3f256b0 (_ bv1 1)))))
(let (($x157 (or $x156 $x154)))
(let (($x158 (= node_0x7fffeb96e300_CS0x3f256b0 sext_0x7fffeb96e590_CS0x3f256b0)))
(let (($x160 (= sext_0x7fffeb96e590_CS0x3f256b0 ((_ sign_extend 32) node_0x7fffeb96df50_CS0x3f256b0))))
(let (($x161 (= node_0x7fffeb96df50_CS0x3f256b0 mul_0x7fffeb96e0d0_CS0x3f256b0)))
(let (($x162 (= node_0x7fffeb96db00_CS0x3f256b0 LdMem_0x7fffeb96dc80_CS0x3f256b0)))
(let (($x163 (= StMem_0x12e1acb0_CS0x3f256b0 parg_node_0x12e1adf0_CS0x3f256b0)))
(let (($x164 (= LdMem_0x7fffeb96dc80_CS0x3f256b0 StMem_0x12e1acb0_CS0x3f256b0)))
(let (($x165 (or $x156 $x164)))
(let (($x167 (= node_0x7fffeb96db00_CS0x3f256b0 (_ bv0 32))))
(let (($x168 (= node_0x7fffeb96ced0_CS0x3f256b0 (_ bv0 32))))
(let (($x172 (= mul_0x7fffeb96e0d0_CS0x3f256b0 (bvmul node_0x7fffeb96ced0_CS0x3f256b0 node_0x7fffeb96db00_CS0x3f256b0))))
(let (($x173 (and $x172 (or (or $x168 $x167) (and (distinct mul_0x7fffeb96e0d0_CS0x3f256b0 (_ bv0 32)) true)))))
(let (($x174 (= node_0x7fffeb96ced0_CS0x3f256b0 LdMem_0x7fffeb96d160_CS0x3f256b0)))
(let (($x175 (= StMem_0x7fffeb96d030_CS0x3f256b0 parg_node_0x12e1a970_CS0x3f256b0)))
(let (($x176 (= LdMem_0x7fffeb96d160_CS0x3f256b0 StMem_0x7fffeb96d030_CS0x3f256b0)))
(let (($x177 (or $x156 $x176)))
(let (($x178 (and $x177 $x176 $x175 $x174 $x173 $x165 $x164 $x163 $x162 $x161 $x160 $x158 $x157 $x154 $x153 $x152 $x151 $x143 $x142 $x142)))
(let (($x85 (= return_node_0x7fffeb96b5b0_CS0x3ed37d0 node_0x7fffeb96e830_CS0x3ed37d0)))
(let (($x86 (= node_0x7fffeb96e830_CS0x3ed37d0 udiv_0x7fffeb96e9d0_CS0x3ed37d0)))
(let (($x88 (= node_0x7fffeb96e300_CS0x3ed37d0 (_ bv0 64))))
(let (($x89 (= node_0x7fffeb96c3b0_CS0x3ed37d0 (_ bv0 64))))
(let (($x93 (= udiv_0x7fffeb96e9d0_CS0x3ed37d0 (bvudiv node_0x7fffeb96c3b0_CS0x3ed37d0 node_0x7fffeb96e300_CS0x3ed37d0))))
(let (($x94 (and $x93 (or (or $x89 $x88) (and (distinct udiv_0x7fffeb96e9d0_CS0x3ed37d0 (_ bv0 64)) true)))))
(let (($x95 (= node_0x7fffeb96c3b0_CS0x3ed37d0 LdMem_0x7fffeb96c530_CS0x3ed37d0)))
(let (($x96 (= StMem_0x12e1a600_CS0x3ed37d0 parg_node_0x12e1a740_CS0x3ed37d0)))
(let (($x97 (= LdMem_0x7fffeb96c530_CS0x3ed37d0 StMem_0x12e1a600_CS0x3ed37d0)))
(let (($x99 (not (= R0x7fffeb96b170_CS0x3ed37d0 (_ bv1 1)))))
(let (($x100 (or $x99 $x97)))
(let (($x101 (= node_0x7fffeb96e300_CS0x3ed37d0 sext_0x7fffeb96e590_CS0x3ed37d0)))
(let (($x103 (= sext_0x7fffeb96e590_CS0x3ed37d0 ((_ sign_extend 32) node_0x7fffeb96df50_CS0x3ed37d0))))
(let (($x104 (= node_0x7fffeb96df50_CS0x3ed37d0 mul_0x7fffeb96e0d0_CS0x3ed37d0)))
(let (($x105 (= node_0x7fffeb96db00_CS0x3ed37d0 LdMem_0x7fffeb96dc80_CS0x3ed37d0)))
(let (($x106 (= StMem_0x12e1acb0_CS0x3ed37d0 parg_node_0x12e1adf0_CS0x3ed37d0)))
(let (($x107 (= LdMem_0x7fffeb96dc80_CS0x3ed37d0 StMem_0x12e1acb0_CS0x3ed37d0)))
(let (($x108 (or $x99 $x107)))
(let (($x110 (= node_0x7fffeb96db00_CS0x3ed37d0 (_ bv0 32))))
(let (($x111 (= node_0x7fffeb96ced0_CS0x3ed37d0 (_ bv0 32))))
(let (($x115 (= mul_0x7fffeb96e0d0_CS0x3ed37d0 (bvmul node_0x7fffeb96ced0_CS0x3ed37d0 node_0x7fffeb96db00_CS0x3ed37d0))))
(let (($x116 (and $x115 (or (or $x111 $x110) (and (distinct mul_0x7fffeb96e0d0_CS0x3ed37d0 (_ bv0 32)) true)))))
(let (($x117 (= node_0x7fffeb96ced0_CS0x3ed37d0 LdMem_0x7fffeb96d160_CS0x3ed37d0)))
(let (($x118 (= StMem_0x7fffeb96d030_CS0x3ed37d0 parg_node_0x12e1a970_CS0x3ed37d0)))
(let (($x119 (= LdMem_0x7fffeb96d160_CS0x3ed37d0 StMem_0x7fffeb96d030_CS0x3ed37d0)))
(let (($x120 (or $x99 $x119)))
(let (($x121 (and $x120 $x119 $x118 $x117 $x116 $x108 $x107 $x106 $x105 $x104 $x103 $x101 $x100 $x97 $x96 $x95 $x94 $x86 $x85 $x85)))
(and $x121 $x178))))))))))))))))))))))))))))))))))))))))))))))))))))))))
(minimize node_0x7ffff0d18b20)
(maximize sext_0x7fffeb96e590_CS0x3ed37d0)
(maximize ieq_0x7ffff0d2eac0)
(maximize sext_0x7ffff0d07200)
(minimize ine_0x7ffff0d2a590)
(minimize sext_0x7ffff0d0a910)
(maximize node_0x7ffff0cc3110)
(minimize sext_0x7ffff0d057a0)
(maximize R0x7fffeb96b170_CS0x3f256b0)
(minimize node_0x7fffeb96c3b0_CS0x3ed37d0)
(minimize parg_node_0x12e1a970_CS0x3ed37d0)
(minimize node_0x7ffff0d29240)
(maximize node_0x7ffff0d18720)
(minimize LdMem_0x12ea87c0)
(minimize node_0x7fffeb96e300_CS0x3f256b0)
(minimize node_0x7ffff0d18720)
(maximize srem_0x7ffff0d233d0)
(minimize node_0x12ea85c0)
(minimize sext_0x7fffeb96e590_CS0x3ed37d0)
(minimize LdMem_0x12ea7ec0)
(minimize udiv_0x7fffeb96e9d0_CS0x3ed37d0)
(maximize ccso_node_0x7ffff0d0c000)
(maximize parg_node_0x12e1a970_CS0x3ed37d0)
(minimize islt_0x7ffff0d22d10)
(maximize node_0x7fffeb96df50_CS0x3ed37d0)
(maximize ine_0x7ffff0d2a590)
(minimize iult_0x7ffff0d29a10)
(maximize parg_node_0x12e1adf0_CS0x3f256b0)
(minimize udiv_0x7fffeb96e9d0_CS0x3f256b0)
(minimize node_0x12ea8a40)
(minimize ieq_0x7ffff0d26430)
(maximize sext_0x7ffff0d0a910)
(maximize ieq_0x7ffff0d0dd60)
(maximize udiv_0x7fffeb96e9d0_CS0x3f256b0)
(maximize node_0x7ffff0ccb110)
(minimize node_0x7fffeb96ced0_CS0x3f256b0)
(minimize node_0x7ffff0d34bd0)
(maximize ieq_0x7ffff0d23650)
(minimize node_0x7ffff0d09520)
(maximize node_0x7ffff0d05f00)
(maximize LdMem_0x7ffff0cfe160)
(maximize LdMem_0x12ea8340)
(maximize mul_0x7fffeb96e0d0_CS0x3f256b0)
(maximize R0x7ffff0c83d30)
(maximize node_0x7ffff0d34bd0)
(minimize node_0x12ea8140)
(minimize node_0x7ffff0cc3110)
(minimize ccso_node_0x7ffff0d0c000)
(maximize node_0x7fffeb96e300_CS0x3f256b0)
(maximize StMem_0x12e1a600_CS0x3ed37d0)
(maximize return_node_0x7fffeb96b5b0_CS0x3ed37d0)
(minimize trunc_0x7ffff0d09320)
(minimize udiv_0x7ffff0d05be0)
(minimize srem_0x7ffff0d261b0)
(minimize add_0x7ffff0d0b090)
(maximize ine_0x7ffff0d0b630)
(maximize trunc_0x7ffff0d09320)
(maximize return_node_0x7fffeb96b5b0_CS0x3f256b0)
(check-sat)
(get-objectives)
